c graph converted from Delauney Triangulation format
c weights on edges removed (lost)
x low 0.00
p edge 493 1467
n 0 1.00
n 473 1.00
n 466 1.00
n 26 1.00
n 27 1.00
n 31 1.00
n 39 1.00
n 2 1.00
n 1 1.00
n 3 1.00
n 8 1.00
n 4 1.00
n 36 1.00
n 50 1.00
n 51 1.00
n 5 1.00
n 7 1.00
n 6 1.00
n 9 1.00
n 10 1.00
n 12 1.00
n 11 1.00
n 65 1.00
n 70 1.00
n 13 1.00
n 18 1.00
n 49 1.00
n 52 1.00
n 56 1.00
n 14 1.00
n 15 1.00
n 16 1.00
n 60 1.00
n 17 1.00
n 61 1.00
n 19 1.00
n 62 1.00
n 83 1.00
n 66 1.00
n 82 1.00
n 20 1.00
n 223 1.00
n 234 1.00
n 21 1.00
n 40 1.00
n 41 1.00
n 209 1.00
n 189 1.00
n 44 1.00
n 180 1.00
n 169 1.00
n 162 1.00
n 46 1.00
n 64 1.00
n 23 1.00
n 22 1.00
n 300 1.00
n 32 1.00
n 268 1.00
n 34 1.00
n 30 1.00
n 398 1.00
n 24 1.00
n 461 1.00
n 456 1.00
n 25 1.00
n 428 1.00
n 422 1.00
n 421 1.00
n 28 1.00
n 29 1.00
n 38 1.00
n 33 1.00
n 37 1.00
n 35 1.00
n 43 1.00
n 42 1.00
n 45 1.00
n 47 1.00
n 53 1.00
n 48 1.00
n 55 1.00
n 54 1.00
n 57 1.00
n 58 1.00
n 59 1.00
n 127 1.00
n 86 1.00
n 63 1.00
n 85 1.00
n 84 1.00
n 148 1.00
n 138 1.00
n 68 1.00
n 67 1.00
n 69 1.00
n 80 1.00
n 71 1.00
n 77 1.00
n 72 1.00
n 73 1.00
n 74 1.00
n 89 1.00
n 90 1.00
n 93 1.00
n 75 1.00
n 76 1.00
n 78 1.00
n 81 1.00
n 95 1.00
n 98 1.00
n 79 1.00
n 115 1.00
n 87 1.00
n 88 1.00
n 96 1.00
n 94 1.00
n 91 1.00
n 92 1.00
n 101 1.00
n 103 1.00
n 102 1.00
n 108 1.00
n 99 1.00
n 104 1.00
n 105 1.00
n 97 1.00
n 100 1.00
n 106 1.00
n 107 1.00
n 109 1.00
n 110 1.00
n 120 1.00
n 116 1.00
n 111 1.00
n 112 1.00
n 114 1.00
n 142 1.00
n 117 1.00
n 177 1.00
n 113 1.00
n 123 1.00
n 118 1.00
n 119 1.00
n 126 1.00
n 121 1.00
n 124 1.00
n 128 1.00
n 122 1.00
n 125 1.00
n 129 1.00
n 133 1.00
n 132 1.00
n 140 1.00
n 131 1.00
n 136 1.00
n 130 1.00
n 135 1.00
n 137 1.00
n 141 1.00
n 134 1.00
n 144 1.00
n 143 1.00
n 139 1.00
n 146 1.00
n 145 1.00
n 157 1.00
n 152 1.00
n 149 1.00
n 150 1.00
n 147 1.00
n 153 1.00
n 151 1.00
n 154 1.00
n 155 1.00
n 165 1.00
n 171 1.00
n 168 1.00
n 156 1.00
n 158 1.00
n 159 1.00
n 163 1.00
n 167 1.00
n 160 1.00
n 182 1.00
n 164 1.00
n 161 1.00
n 173 1.00
n 170 1.00
n 166 1.00
n 179 1.00
n 186 1.00
n 183 1.00
n 187 1.00
n 176 1.00
n 185 1.00
n 178 1.00
n 181 1.00
n 172 1.00
n 174 1.00
n 175 1.00
n 196 1.00
n 200 1.00
n 193 1.00
n 195 1.00
n 192 1.00
n 213 1.00
n 491 1.00
n 197 1.00
n 184 1.00
n 205 1.00
n 201 1.00
n 202 1.00
n 188 1.00
n 203 1.00
n 190 1.00
n 194 1.00
n 191 1.00
n 214 1.00
n 221 1.00
n 199 1.00
n 198 1.00
n 208 1.00
n 238 1.00
n 225 1.00
n 204 1.00
n 217 1.00
n 210 1.00
n 215 1.00
n 212 1.00
n 211 1.00
n 218 1.00
n 206 1.00
n 219 1.00
n 231 1.00
n 207 1.00
n 220 1.00
n 222 1.00
n 233 1.00
n 228 1.00
n 239 1.00
n 224 1.00
n 216 1.00
n 235 1.00
n 229 1.00
n 227 1.00
n 226 1.00
n 230 1.00
n 247 1.00
n 248 1.00
n 236 1.00
n 232 1.00
n 254 1.00
n 265 1.00
n 269 1.00
n 334 1.00
n 490 1.00
n 243 1.00
n 242 1.00
n 237 1.00
n 241 1.00
n 240 1.00
n 252 1.00
n 246 1.00
n 266 1.00
n 271 1.00
n 267 1.00
n 250 1.00
n 251 1.00
n 249 1.00
n 245 1.00
n 244 1.00
n 253 1.00
n 276 1.00
n 296 1.00
n 275 1.00
n 272 1.00
n 255 1.00
n 270 1.00
n 256 1.00
n 257 1.00
n 258 1.00
n 259 1.00
n 260 1.00
n 261 1.00
n 262 1.00
n 263 1.00
n 264 1.00
n 297 1.00
n 278 1.00
n 288 1.00
n 279 1.00
n 280 1.00
n 281 1.00
n 282 1.00
n 283 1.00
n 284 1.00
n 285 1.00
n 286 1.00
n 273 1.00
n 304 1.00
n 277 1.00
n 333 1.00
n 274 1.00
n 298 1.00
n 303 1.00
n 287 1.00
n 301 1.00
n 299 1.00
n 315 1.00
n 325 1.00
n 289 1.00
n 290 1.00
n 291 1.00
n 292 1.00
n 293 1.00
n 294 1.00
n 295 1.00
n 302 1.00
n 306 1.00
n 305 1.00
n 313 1.00
n 308 1.00
n 321 1.00
n 312 1.00
n 311 1.00
n 307 1.00
n 324 1.00
n 316 1.00
n 384 1.00
n 381 1.00
n 309 1.00
n 310 1.00
n 314 1.00
n 318 1.00
n 317 1.00
n 391 1.00
n 320 1.00
n 319 1.00
n 330 1.00
n 339 1.00
n 326 1.00
n 328 1.00
n 322 1.00
n 323 1.00
n 355 1.00
n 327 1.00
n 331 1.00
n 347 1.00
n 329 1.00
n 332 1.00
n 358 1.00
n 336 1.00
n 335 1.00
n 348 1.00
n 340 1.00
n 341 1.00
n 344 1.00
n 337 1.00
n 338 1.00
n 342 1.00
n 343 1.00
n 346 1.00
n 345 1.00
n 368 1.00
n 371 1.00
n 361 1.00
n 350 1.00
n 349 1.00
n 352 1.00
n 353 1.00
n 354 1.00
n 357 1.00
n 351 1.00
n 356 1.00
n 369 1.00
n 359 1.00
n 360 1.00
n 394 1.00
n 372 1.00
n 363 1.00
n 362 1.00
n 370 1.00
n 364 1.00
n 365 1.00
n 366 1.00
n 403 1.00
n 386 1.00
n 404 1.00
n 374 1.00
n 367 1.00
n 396 1.00
n 376 1.00
n 385 1.00
n 373 1.00
n 486 1.00
n 375 1.00
n 377 1.00
n 378 1.00
n 379 1.00
n 380 1.00
n 397 1.00
n 389 1.00
n 390 1.00
n 427 1.00
n 487 1.00
n 383 1.00
n 382 1.00
n 405 1.00
n 406 1.00
n 387 1.00
n 388 1.00
n 392 1.00
n 393 1.00
n 401 1.00
n 395 1.00
n 399 1.00
n 400 1.00
n 407 1.00
n 402 1.00
n 409 1.00
n 408 1.00
n 410 1.00
n 411 1.00
n 412 1.00
n 425 1.00
n 426 1.00
n 424 1.00
n 430 1.00
n 457 1.00
n 420 1.00
n 419 1.00
n 418 1.00
n 417 1.00
n 416 1.00
n 415 1.00
n 414 1.00
n 413 1.00
n 423 1.00
n 441 1.00
n 442 1.00
n 432 1.00
n 433 1.00
n 434 1.00
n 435 1.00
n 436 1.00
n 437 1.00
n 438 1.00
n 439 1.00
n 440 1.00
n 429 1.00
n 431 1.00
n 488 1.00
n 489 1.00
n 443 1.00
n 459 1.00
n 444 1.00
n 445 1.00
n 446 1.00
n 447 1.00
n 448 1.00
n 449 1.00
n 450 1.00
n 451 1.00
n 452 1.00
n 453 1.00
n 455 1.00
n 454 1.00
n 464 1.00
n 460 1.00
n 458 1.00
n 471 1.00
n 482 1.00
n 480 1.00
n 479 1.00
n 485 1.00
n 470 1.00
n 469 1.00
n 465 1.00
n 462 1.00
n 463 1.00
n 467 1.00
n 468 1.00
n 472 1.00
n 476 1.00
n 474 1.00
n 492 1.00
n 477 1.00
n 478 1.00
n 475 1.00
n 481 1.00
n 483 1.00
n 484 1.00
e 0 473
e 0 466
e 0 26
e 0 27
e 0 31
e 0 39
e 0 2
e 0 1
e 0 3
e 0 8
e 1 2
e 1 4
e 1 3
e 2 39
e 2 36
e 2 50
e 2 4
e 2 51
e 3 4
e 3 5
e 3 8
e 4 5
e 4 51
e 5 7
e 5 6
e 5 8
e 5 51
e 6 7
e 6 8
e 6 9
e 6 10
e 7 51
e 7 10
e 7 12
e 7 11
e 8 9
e 8 11
e 8 65
e 8 70
e 9 10
e 9 11
e 10 11
e 11 12
e 11 13
e 11 18
e 11 65
e 12 51
e 12 49
e 12 52
e 12 13
e 13 52
e 13 56
e 13 14
e 13 18
e 14 56
e 14 15
e 14 16
e 14 18
e 15 56
e 15 16
e 15 60
e 15 17
e 16 18
e 16 17
e 17 18
e 17 60
e 17 61
e 17 19
e 18 19
e 18 65
e 19 61
e 19 62
e 19 83
e 19 65
e 19 66
e 19 82
e 20 223
e 20 234
e 20 21
e 20 40
e 20 41
e 20 209
e 20 189
e 20 44
e 20 180
e 20 169
e 20 162
e 20 46
e 20 64
e 21 23
e 21 22
e 21 300
e 21 32
e 21 268
e 21 34
e 21 40
e 21 234
e 22 30
e 22 23
e 22 398
e 22 300
e 23 32
e 23 30
e 24 26
e 24 461
e 24 456
e 24 25
e 24 428
e 24 422
e 24 421
e 25 26
e 25 422
e 25 398
e 25 28
e 25 30
e 26 466
e 26 461
e 26 27
e 26 28
e 27 28
e 27 31
e 28 31
e 28 29
e 28 30
e 29 31
e 29 30
e 30 31
e 30 32
e 30 398
e 31 38
e 31 39
e 31 33
e 31 32
e 32 33
e 32 34
e 33 38
e 33 37
e 33 34
e 34 37
e 34 35
e 34 40
e 35 37
e 35 36
e 35 40
e 35 50
e 36 37
e 36 39
e 36 50
e 37 39
e 37 38
e 38 39
e 40 50
e 40 41
e 41 50
e 41 43
e 41 42
e 41 44
e 42 43
e 42 44
e 42 45
e 43 50
e 43 47
e 43 45
e 43 49
e 43 46
e 44 45
e 44 46
e 45 46
e 46 49
e 46 53
e 46 64
e 47 50
e 47 51
e 47 48
e 47 49
e 48 51
e 48 49
e 49 51
e 49 53
e 49 52
e 50 51
e 52 53
e 52 55
e 52 56
e 53 64
e 53 54
e 53 55
e 54 64
e 54 55
e 54 57
e 55 56
e 55 57
e 56 57
e 56 60
e 57 64
e 57 58
e 57 60
e 58 64
e 58 59
e 58 60
e 59 64
e 59 127
e 59 60
e 59 86
e 59 63
e 60 62
e 60 61
e 60 63
e 61 62
e 62 63
e 62 83
e 63 86
e 63 85
e 63 84
e 63 83
e 64 162
e 64 148
e 64 138
e 64 127
e 65 66
e 65 68
e 65 70
e 66 82
e 66 67
e 66 68
e 67 82
e 67 68
e 67 69
e 67 80
e 68 69
e 68 71
e 68 70
e 69 80
e 69 77
e 69 71
e 70 72
e 70 71
e 70 73
e 70 74
e 70 89
e 70 90
e 70 93
e 71 77
e 71 72
e 72 73
e 72 77
e 73 77
e 73 75
e 73 74
e 74 76
e 74 75
e 74 89
e 75 76
e 75 78
e 75 81
e 75 77
e 76 78
e 76 95
e 76 98
e 76 89
e 77 80
e 77 79
e 77 81
e 78 81
e 78 95
e 79 80
e 79 82
e 79 81
e 80 82
e 81 83
e 81 84
e 81 82
e 81 85
e 81 95
e 82 83
e 83 84
e 84 85
e 85 86
e 85 115
e 85 95
e 86 127
e 86 115
e 87 88
e 87 96
e 87 89
e 88 96
e 88 94
e 88 91
e 88 90
e 88 89
e 89 96
e 89 98
e 89 90
e 90 93
e 90 91
e 91 94
e 91 92
e 91 93
e 92 101
e 92 94
e 92 103
e 92 93
e 93 103
e 93 102
e 93 108
e 94 99
e 94 104
e 94 101
e 94 96
e 95 115
e 95 105
e 95 98
e 96 98
e 96 97
e 96 99
e 97 98
e 97 100
e 97 99
e 98 106
e 98 105
e 98 100
e 99 100
e 99 104
e 100 107
e 100 106
e 100 104
e 101 104
e 101 109
e 101 103
e 102 103
e 102 110
e 102 108
e 103 110
e 103 109
e 104 109
e 104 107
e 105 120
e 105 106
e 105 115
e 106 120
e 106 116
e 106 111
e 106 107
e 107 112
e 107 111
e 107 114
e 107 109
e 108 142
e 108 117
e 108 110
e 108 177
e 109 114
e 109 113
e 109 110
e 110 123
e 110 117
e 110 113
e 111 116
e 111 112
e 112 114
e 112 118
e 112 116
e 113 119
e 113 114
e 113 123
e 114 119
e 114 126
e 114 118
e 115 127
e 115 121
e 115 120
e 116 118
e 116 124
e 116 120
e 117 142
e 117 123
e 118 128
e 118 126
e 118 124
e 119 126
e 119 122
e 119 123
e 120 121
e 120 125
e 120 124
e 121 138
e 121 125
e 121 127
e 122 129
e 122 133
e 122 132
e 122 126
e 122 123
e 123 129
e 123 140
e 123 142
e 124 131
e 124 128
e 124 125
e 125 138
e 125 131
e 126 136
e 126 130
e 126 135
e 126 132
e 126 128
e 127 138
e 128 135
e 128 131
e 129 133
e 129 137
e 129 141
e 129 140
e 130 132
e 130 134
e 130 136
e 131 135
e 131 144
e 131 148
e 131 138
e 132 133
e 132 134
e 133 143
e 133 139
e 133 134
e 133 137
e 134 136
e 134 146
e 134 143
e 135 144
e 135 145
e 135 136
e 136 146
e 136 145
e 137 141
e 137 139
e 138 148
e 139 141
e 139 143
e 140 157
e 140 152
e 140 141
e 140 142
e 141 143
e 141 149
e 141 152
e 142 157
e 142 150
e 142 177
e 143 147
e 143 149
e 143 146
e 144 153
e 144 151
e 144 145
e 144 154
e 144 148
e 145 151
e 145 155
e 145 146
e 146 155
e 146 147
e 147 155
e 147 149
e 148 162
e 148 154
e 149 165
e 149 171
e 149 168
e 149 155
e 149 152
e 150 157
e 150 156
e 150 177
e 151 158
e 151 153
e 151 159
e 151 155
e 152 168
e 152 163
e 152 167
e 152 157
e 153 160
e 153 158
e 153 154
e 154 160
e 154 162
e 155 165
e 155 159
e 156 182
e 156 164
e 156 157
e 156 177
e 157 167
e 157 164
e 158 161
e 158 173
e 158 159
e 158 170
e 158 160
e 159 166
e 159 161
e 159 165
e 160 169
e 160 162
e 160 170
e 161 166
e 161 179
e 161 173
e 162 169
e 163 186
e 163 183
e 163 167
e 163 168
e 164 187
e 164 176
e 164 182
e 164 167
e 165 185
e 165 178
e 165 166
e 165 171
e 166 185
e 166 179
e 167 187
e 167 186
e 168 171
e 168 181
e 168 183
e 169 180
e 169 172
e 169 170
e 170 172
e 170 174
e 170 175
e 170 173
e 171 196
e 171 181
e 171 178
e 172 174
e 172 180
e 173 179
e 173 175
e 174 189
e 174 180
e 174 200
e 174 175
e 175 193
e 175 200
e 175 179
e 176 195
e 176 192
e 176 182
e 176 187
e 177 195
e 177 213
e 177 182
e 177 491
e 178 197
e 178 184
e 178 196
e 178 185
e 179 185
e 179 193
e 180 189
e 181 196
e 181 205
e 181 183
e 182 195
e 183 205
e 183 201
e 183 202
e 183 186
e 184 188
e 184 197
e 184 185
e 185 193
e 185 188
e 186 203
e 186 190
e 186 202
e 186 187
e 187 194
e 187 191
e 187 192
e 187 190
e 188 197
e 188 214
e 188 221
e 188 193
e 189 209
e 189 200
e 190 203
e 190 199
e 190 191
e 191 198
e 191 199
e 191 194
e 192 198
e 192 194
e 192 195
e 193 221
e 193 208
e 193 200
e 194 198
e 195 238
e 195 225
e 195 204
e 195 213
e 195 198
e 196 214
e 196 217
e 196 197
e 196 210
e 196 205
e 197 214
e 198 199
e 198 204
e 199 204
e 199 203
e 200 215
e 200 209
e 200 208
e 201 202
e 201 212
e 201 211
e 201 205
e 202 218
e 202 206
e 202 212
e 202 203
e 203 204
e 203 219
e 203 206
e 204 219
e 204 231
e 204 238
e 205 210
e 205 207
e 205 211
e 206 219
e 206 220
e 206 218
e 207 210
e 207 222
e 207 233
e 207 228
e 207 211
e 208 239
e 208 215
e 208 221
e 209 223
e 209 224
e 209 215
e 210 222
e 210 217
e 211 228
e 211 216
e 211 212
e 212 218
e 212 216
e 213 491
e 213 225
e 214 235
e 214 229
e 214 221
e 214 217
e 215 224
e 215 239
e 216 228
e 216 227
e 216 226
e 216 218
e 217 222
e 217 230
e 217 235
e 218 220
e 218 226
e 219 247
e 219 248
e 219 220
e 219 236
e 219 231
e 220 232
e 220 247
e 220 226
e 221 254
e 221 229
e 221 239
e 222 233
e 222 230
e 223 224
e 223 234
e 224 239
e 224 265
e 224 234
e 225 269
e 225 334
e 225 238
e 225 490
e 225 491
e 226 227
e 226 232
e 227 243
e 227 242
e 227 228
e 227 237
e 227 232
e 228 241
e 228 242
e 228 233
e 229 235
e 229 254
e 230 235
e 230 240
e 230 233
e 231 252
e 231 236
e 231 238
e 232 246
e 232 237
e 232 247
e 233 266
e 233 241
e 233 240
e 234 265
e 234 268
e 235 240
e 235 271
e 235 267
e 235 254
e 236 250
e 236 251
e 236 252
e 236 249
e 236 248
e 237 245
e 237 244
e 237 243
e 237 246
e 238 269
e 238 253
e 238 252
e 239 254
e 239 276
e 239 265
e 240 296
e 240 266
e 240 275
e 240 271
e 241 272
e 241 255
e 241 270
e 241 242
e 241 266
e 242 243
e 242 255
e 243 255
e 243 256
e 243 244
e 244 257
e 244 256
e 244 245
e 245 258
e 245 257
e 245 246
e 246 259
e 246 258
e 246 247
e 247 260
e 247 259
e 247 248
e 248 261
e 248 260
e 248 249
e 249 262
e 249 261
e 249 250
e 250 263
e 250 262
e 250 251
e 251 264
e 251 263
e 251 252
e 252 264
e 252 253
e 253 264
e 253 269
e 254 297
e 254 267
e 254 276
e 255 278
e 255 288
e 255 272
e 255 256
e 256 279
e 256 278
e 256 257
e 257 280
e 257 279
e 257 258
e 258 281
e 258 280
e 258 259
e 259 282
e 259 281
e 259 260
e 260 283
e 260 282
e 260 261
e 261 284
e 261 283
e 261 262
e 262 285
e 262 284
e 262 263
e 263 286
e 263 285
e 263 264
e 264 273
e 264 286
e 264 269
e 265 304
e 265 268
e 265 276
e 266 270
e 266 277
e 266 296
e 267 333
e 267 297
e 267 275
e 267 271
e 268 304
e 268 300
e 269 273
e 269 274
e 269 334
e 270 272
e 270 277
e 271 275
e 272 298
e 272 303
e 272 277
e 272 288
e 273 287
e 273 301
e 273 274
e 273 299
e 273 286
e 274 287
e 274 315
e 274 334
e 275 333
e 275 325
e 275 296
e 276 297
e 276 304
e 277 298
e 277 296
e 278 288
e 278 289
e 278 279
e 279 290
e 279 289
e 279 280
e 280 291
e 280 290
e 280 281
e 281 292
e 281 291
e 281 282
e 282 293
e 282 292
e 282 283
e 283 294
e 283 293
e 283 284
e 284 295
e 284 294
e 284 285
e 285 302
e 285 295
e 285 286
e 286 299
e 286 302
e 287 301
e 287 306
e 287 315
e 288 289
e 288 305
e 288 303
e 289 313
e 289 308
e 289 290
e 289 305
e 290 321
e 290 308
e 290 291
e 291 312
e 291 321
e 291 292
e 292 312
e 292 293
e 293 312
e 293 311
e 293 294
e 294 307
e 294 311
e 294 295
e 295 307
e 295 302
e 296 324
e 296 325
e 296 316
e 296 298
e 297 384
e 297 381
e 297 333
e 297 304
e 298 303
e 298 309
e 298 316
e 299 302
e 299 310
e 299 301
e 300 398
e 300 304
e 301 306
e 301 314
e 301 310
e 302 310
e 302 318
e 302 307
e 303 309
e 303 317
e 303 305
e 304 391
e 304 384
e 304 398
e 305 313
e 305 320
e 305 317
e 306 314
e 306 319
e 306 315
e 307 330
e 307 318
e 307 339
e 307 311
e 308 326
e 308 328
e 308 313
e 308 321
e 309 317
e 309 322
e 309 316
e 310 318
e 310 323
e 310 314
e 311 355
e 311 339
e 311 312
e 312 355
e 312 321
e 313 320
e 313 326
e 314 319
e 314 327
e 314 323
e 315 319
e 315 331
e 315 347
e 315 334
e 316 322
e 316 324
e 317 322
e 317 329
e 317 320
e 318 323
e 318 330
e 319 327
e 319 331
e 320 326
e 320 332
e 320 329
e 321 358
e 321 328
e 321 355
e 322 329
e 322 336
e 322 324
e 323 330
e 323 335
e 323 327
e 324 348
e 324 340
e 324 336
e 324 325
e 325 341
e 325 344
e 325 340
e 325 333
e 326 332
e 326 337
e 326 328
e 327 331
e 327 338
e 327 335
e 328 337
e 328 358
e 329 336
e 329 342
e 329 332
e 330 335
e 330 343
e 330 339
e 331 338
e 331 346
e 331 347
e 332 337
e 332 345
e 332 342
e 333 368
e 333 381
e 333 341
e 334 371
e 334 361
e 334 347
e 334 490
e 335 343
e 335 350
e 335 338
e 336 342
e 336 349
e 336 348
e 337 345
e 337 352
e 337 358
e 338 346
e 338 353
e 338 350
e 339 354
e 339 355
e 339 343
e 340 357
e 340 351
e 340 348
e 340 344
e 341 344
e 341 368
e 342 349
e 342 356
e 342 345
e 343 350
e 343 354
e 344 368
e 344 369
e 344 351
e 345 352
e 345 359
e 345 356
e 346 353
e 346 360
e 346 347
e 347 371
e 347 394
e 347 372
e 347 360
e 348 363
e 348 357
e 348 349
e 349 356
e 349 363
e 350 354
e 350 362
e 350 353
e 351 357
e 351 370
e 351 369
e 352 359
e 352 364
e 352 358
e 353 360
e 353 365
e 353 362
e 354 362
e 354 366
e 354 355
e 355 403
e 355 386
e 355 404
e 355 374
e 355 366
e 355 358
e 356 363
e 356 367
e 356 359
e 357 396
e 357 376
e 357 370
e 357 363
e 358 385
e 358 374
e 358 364
e 359 364
e 359 373
e 359 367
e 360 365
e 360 372
e 361 371
e 361 486
e 361 490
e 362 366
e 362 375
e 362 365
e 363 367
e 363 376
e 364 373
e 364 377
e 364 385
e 365 372
e 365 378
e 365 375
e 366 375
e 366 379
e 366 386
e 367 376
e 367 380
e 367 373
e 368 397
e 368 389
e 368 369
e 368 390
e 368 381
e 369 389
e 369 370
e 370 396
e 370 389
e 371 394
e 371 427
e 371 487
e 371 486
e 372 378
e 372 383
e 372 394
e 373 377
e 373 382
e 373 380
e 374 405
e 374 406
e 374 385
e 374 404
e 375 379
e 375 387
e 375 378
e 376 380
e 376 388
e 376 396
e 377 382
e 377 392
e 377 385
e 378 383
e 378 393
e 378 387
e 379 387
e 379 401
e 379 386
e 380 388
e 380 395
e 380 382
e 381 456
e 381 390
e 381 428
e 381 384
e 382 392
e 382 399
e 382 395
e 383 393
e 383 400
e 383 394
e 384 391
e 384 421
e 384 428
e 385 392
e 385 407
e 385 406
e 386 402
e 386 401
e 386 403
e 387 401
e 387 409
e 387 393
e 388 395
e 388 408
e 388 396
e 389 396
e 389 410
e 389 397
e 390 456
e 390 397
e 391 398
e 391 422
e 391 421
e 392 399
e 392 411
e 392 412
e 392 407
e 393 400
e 393 425
e 393 409
e 394 426
e 394 427
e 394 400
e 395 408
e 395 424
e 395 399
e 396 410
e 396 430
e 396 408
e 397 456
e 397 457
e 397 410
e 398 422
e 399 424
e 399 411
e 400 425
e 400 420
e 400 426
e 401 419
e 401 418
e 401 402
e 401 409
e 402 418
e 402 417
e 402 403
e 403 417
e 403 416
e 403 404
e 404 416
e 404 415
e 404 405
e 405 415
e 405 414
e 405 406
e 406 414
e 406 413
e 406 407
e 407 413
e 407 412
e 408 424
e 408 423
e 408 430
e 409 441
e 409 419
e 409 425
e 410 442
e 410 457
e 410 430
e 411 432
e 411 433
e 411 412
e 411 424
e 412 434
e 412 433
e 412 413
e 413 435
e 413 434
e 413 414
e 414 436
e 414 435
e 414 415
e 415 437
e 415 436
e 415 416
e 416 438
e 416 437
e 416 417
e 417 439
e 417 438
e 417 418
e 418 440
e 418 439
e 418 419
e 419 440
e 419 441
e 420 425
e 420 429
e 420 426
e 421 422
e 421 428
e 423 424
e 423 431
e 423 430
e 424 432
e 424 431
e 425 429
e 425 488
e 425 441
e 426 429
e 426 489
e 426 427
e 427 487
e 427 489
e 428 456
e 429 488
e 429 489
e 430 431
e 430 442
e 431 443
e 431 459
e 431 442
e 431 432
e 432 444
e 432 443
e 432 445
e 432 433
e 433 446
e 433 445
e 433 434
e 434 447
e 434 446
e 434 435
e 435 448
e 435 447
e 435 436
e 436 449
e 436 448
e 436 437
e 437 450
e 437 449
e 437 438
e 438 451
e 438 450
e 438 439
e 439 452
e 439 451
e 439 440
e 440 453
e 440 452
e 440 441
e 441 455
e 441 454
e 441 453
e 441 488
e 442 464
e 442 460
e 442 457
e 442 459
e 443 459
e 443 458
e 443 444
e 444 445
e 444 458
e 445 446
e 445 458
e 446 458
e 446 471
e 446 447
e 447 471
e 447 482
e 447 448
e 448 482
e 448 449
e 449 482
e 449 450
e 450 451
e 450 482
e 451 480
e 451 482
e 451 452
e 452 480
e 452 453
e 453 454
e 453 480
e 454 479
e 454 480
e 454 455
e 455 485
e 455 479
e 455 488
e 456 461
e 456 457
e 457 461
e 457 460
e 458 459
e 458 471
e 459 470
e 459 469
e 459 471
e 459 464
e 460 465
e 460 462
e 460 463
e 460 461
e 460 464
e 461 466
e 461 463
e 462 464
e 462 465
e 463 466
e 463 465
e 464 469
e 464 466
e 464 465
e 465 466
e 466 473
e 466 467
e 466 469
e 467 473
e 467 469
e 467 468
e 467 470
e 467 472
e 467 471
e 468 469
e 468 470
e 469 470
e 470 471
e 471 472
e 471 482
e 472 473
e 472 476
e 472 480
e 472 482
e 473 474
e 473 476
e 473 492
e 474 476
e 474 492
e 474 477
e 474 478
e 474 475
e 475 478
e 475 492
e 475 481
e 475 483
e 476 477
e 476 480
e 476 479
e 477 478
e 477 479
e 478 481
e 478 479
e 479 480
e 479 485
e 479 481
e 480 482
e 481 483
e 481 484
e 481 485
e 481 487
e 481 489
e 483 492
e 483 484
e 483 486
e 483 491
e 484 487
e 484 486
e 485 488
e 485 489
e 486 487
e 486 491
e 486 490
e 487 489
e 488 489
e 490 491
e 491 492
